interdiction/MCDM/NO_CORR/GEN_FROM_60/18_ITEMS_1000_GEN/K5018W06.KNP.mps
NAME          BLANK   
ROWS
 N  OBJROW
 L  R0000000
COLUMNS
    C0000000  OBJROW     -547.         R0000000  45.         
    C0000001  OBJROW     -513.         R0000000  805.        
    C0000002  OBJROW     -914.         R0000000  302.        
    C0000003  OBJROW     -213.         R0000000  258.        
    C0000004  OBJROW     -69.          R0000000  402.        
    C0000005  OBJROW     -693.         R0000000  79.         
    C0000006  OBJROW     -734.         R0000000  123.        
    C0000007  OBJROW     -507.         R0000000  759.        
    C0000008  OBJROW     -163.         R0000000  328.        
    C0000009  OBJROW     -665.         R0000000  618.        
    C0000010  OBJROW     -673.         R0000000  761.        
    C0000011  OBJROW     -725.         R0000000  217.        
    C0000012  OBJROW     -902.         R0000000  714.        
    C0000013  OBJROW     -732.         R0000000  471.        
    C0000014  OBJROW     -926.         R0000000  751.        
    C0000015  OBJROW     -412.         R0000000  904.        
    C0000016  OBJROW     -846.         R0000000  786.        
    C0000017  OBJROW     -276.         R0000000  761.        
RHS
    RHS       R0000000  14444.      
BOUNDS
 BV BOUND     C0000000  1.          
 BV BOUND     C0000001  1.          
 BV BOUND     C0000002  1.          
 BV BOUND     C0000003  1.          
 BV BOUND     C0000004  1.          
 BV BOUND     C0000005  1.          
 BV BOUND     C0000006  1.          
 BV BOUND     C0000007  1.          
 BV BOUND     C0000008  1.          
 BV BOUND     C0000009  1.          
 BV BOUND     C0000010  1.          
 BV BOUND     C0000011  1.          
 BV BOUND     C0000012  1.          
 BV BOUND     C0000013  1.          
 BV BOUND     C0000014  1.          
 BV BOUND     C0000015  1.          
 BV BOUND     C0000016  1.          
 BV BOUND     C0000017  1.          
ENDATA
