data/MCDM/NO_CORR/GEN_FROM_60/18_ITEMS_1000_GEN/K5018W06.KNP.txt
N 18
M 19
LC 18
LC 19
LC 20
LC 21
LC 22
LC 23
LC 24
LC 25
LC 26
LC 27
LC 28
LC 29
LC 30
LC 31
LC 32
LC 33
LC 34
LC 35
LR 1
LR 2
LR 3
LR 4
LR 5
LR 6
LR 7
LR 8
LR 9
LR 10
LR 11
LR 12
LR 13
LR 14
LR 15
LR 16
LR 17
LR 18
LR 19
LO -547
LO -513
LO -914
LO -213
LO -69
LO -693
LO -734
LO -507
LO -163
LO -665
LO -673
LO -725
LO -902
LO -732
LO -926
LO -412
LO -846
LO -276
OS 1
IC 300
IC 372
IC 985
IC 619
IC 805
IC 100
IC 334
IC 149
IC 647
IC 134
IC 419
IC 986
IC 82
IC 458
IC 912
IC 416
IC 16
IC 875
IB 4305
